
Gurobi 6.5.2 (win64) logging started 07/24/16 17:43:57


Gurobi 6.5.2 (win64) logging started 07/24/16 17:43:57

Optimize a model with 2828 rows, 343 columns and 6286 nonzeros
Coefficient statistics:
  Matrix range    [1e+00, 4e+02]
  Objective range [2e+00, 4e+02]
  Bounds range    [1e+00, 1e+00]
  RHS range       [1e+00, 3e+03]
Presolve removed 2679 rows and 37 columns
Presolve time: 0.00s
Presolved: 149 rows, 306 columns, 1405 nonzeros
Variable types: 0 continuous, 306 integer (306 binary)

Root relaxation: objective 2.603000e+03, 130 iterations, 0.00 seconds

    Nodes    |    Current Node    |     Objective Bounds      |     Work
 Expl Unexpl |  Obj  Depth IntInf | Incumbent    BestBd   Gap | It/Node Time

*    0     0               0    2603.0000000 2603.00000  0.00%     -    0s

Explored 0 nodes (130 simplex iterations) in 0.00 seconds
Thread count was 8 (of 8 available processors)

Optimal solution found (tolerance 1.00e-04)
Best objective 2.603000000000e+03, best bound 2.603000000000e+03, gap 0.0%

Wrote requested result file 'H1\instance25\\Results25SG_Sol3.lp'

